N = 4;
Capacity = 4;
ItemsPerCustomer = [6, 5, 8, 3];
maxItemsPerCustomer = 8;
binCapacity = 50;
SizesOfItems = [|
  40, 37, 32, 19, 11, 10, 0, 0
| 40, 35, 29, 13, 10, 0, 0, 0
| 34, 31, 18, 16, 14, 13, 11, 10
| 33, 16, 13, 0, 0, 0, 0, 0
|];
Distance = [|
  0, 8, 47, 36, 16
| 8, 0, 54, 32, 18
| 47, 54, 0, 82, 57
| 36, 32, 82, 0, 27
| 16, 18, 57, 27, 0
|];
